start=1;

limit = 6;

n = 17;

m=[|-1,17,15,-1,16,9,-1,-1,17,15,-1,-1,4,-1,20,1,12,
|11,-1,-1,-1,-1,17,13,-1,-1,14,-1,-1,-1,4,0,4,8,
|5,1,-1,-1,15,18,10,-1,18,-1,-1,-1,-1,-1,18,-1,7,
|14,20,5,-1,6,12,5,13,3,15,-1,-1,-1,2,17,20,-1,
|-1,-1,-1,11,-1,8,3,-1,-1,-1,1,20,-1,14,5,-1,13,
|-1,8,11,-1,14,-1,-1,9,4,15,-1,18,-1,17,-1,8,6,
|-1,9,-1,3,-1,-1,-1,-1,-1,-1,-1,11,5,6,-1,-1,-1,
|20,3,0,-1,9,-1,-1,-1,-1,-1,16,20,16,-1,-1,14,14,
|14,1,0,-1,-1,-1,3,19,-1,5,-1,17,-1,-1,-1,-1,-1,
|16,10,-1,1,15,2,-1,3,15,-1,15,-1,-1,-1,4,-1,12,
|-1,5,-1,0,-1,6,-1,-1,-1,1,-1,1,-1,6,-1,12,2,
|16,18,-1,-1,13,9,10,-1,-1,-1,-1,-1,18,6,-1,-1,-1,
|6,6,1,5,-1,4,-1,1,18,5,-1,-1,-1,2,12,-1,14,
|-1,-1,-1,16,-1,2,-1,-1,-1,16,-1,-1,13,-1,-1,-1,-1,
|0,-1,-1,-1,18,8,14,8,15,-1,-1,11,-1,10,-1,-1,2,
|-1,9,-1,19,17,-1,-1,-1,-1,10,11,-1,-1,16,-1,-1,2,
|-1,11,6,14,19,10,19,17,-1,14,8,13,-1,14,10,-1,-1,
|];